c CNF file corresponding to a (partial) station packing problem.
p cnf 3192 138
1 2 3 4 5 6 7 8 9 10 11 12 13 14 0
-1 -2 0
-1 -3 0
-1 -4 0
-1 -5 0
-1 -6 0
-1 -7 0
-1 -8 0
-1 -9 0
-1 -10 0
-1 -11 0
-1 -12 0
-1 -13 0
-1 -14 0
-2 -3 0
-2 -4 0
-2 -5 0
-2 -6 0
-2 -7 0
-2 -8 0
-2 -9 0
-2 -10 0
-2 -11 0
-2 -12 0
-2 -13 0
-2 -14 0
-3 -4 0
-3 -5 0
-3 -6 0
-3 -7 0
-3 -8 0
-3 -9 0
-3 -10 0
-3 -11 0
-3 -12 0
-3 -13 0
-3 -14 0
-4 -5 0
-4 -6 0
-4 -7 0
-4 -8 0
-4 -9 0
-4 -10 0
-4 -11 0
-4 -12 0
-4 -13 0
-4 -14 0
-5 -6 0
-5 -7 0
-5 -8 0
-5 -9 0
-5 -10 0
-5 -11 0
-5 -12 0
-5 -13 0
-5 -14 0
-6 -7 0
-6 -8 0
-6 -9 0
-6 -10 0
-6 -11 0
-6 -12 0
-6 -13 0
-6 -14 0
-7 -8 0
-7 -9 0
-7 -10 0
-7 -11 0
-7 -12 0
-7 -13 0
-7 -14 0
-8 -9 0
-8 -10 0
-8 -11 0
-8 -12 0
-8 -13 0
-8 -14 0
-9 -10 0
-9 -11 0
-9 -12 0
-9 -13 0
-9 -14 0
-10 -11 0
-10 -12 0
-10 -13 0
-10 -14 0
-11 -12 0
-11 -13 0
-11 -14 0
-12 -13 0
-12 -14 0
-13 -14 0
3183 3184 3185 3186 3187 3188 3189 3190 3191 3192 0
-3183 -3184 0
-3183 -3185 0
-3183 -3186 0
-3183 -3187 0
-3183 -3188 0
-3183 -3189 0
-3183 -3190 0
-3183 -3191 0
-3183 -3192 0
-3184 -3185 0
-3184 -3186 0
-3184 -3187 0
-3184 -3188 0
-3184 -3189 0
-3184 -3190 0
-3184 -3191 0
-3184 -3192 0
-3185 -3186 0
-3185 -3187 0
-3185 -3188 0
-3185 -3189 0
-3185 -3190 0
-3185 -3191 0
-3185 -3192 0
-3186 -3187 0
-3186 -3188 0
-3186 -3189 0
-3186 -3190 0
-3186 -3191 0
-3186 -3192 0
-3187 -3188 0
-3187 -3189 0
-3187 -3190 0
-3187 -3191 0
-3187 -3192 0
-3188 -3189 0
-3188 -3190 0
-3188 -3191 0
-3188 -3192 0
-3189 -3190 0
-3189 -3191 0
-3189 -3192 0
-3190 -3191 0
-3190 -3192 0
-3191 -3192 0
